 vasp.5.4.4.18Apr17-6-g9f103f2a35 (build Mar 23 2021 02:00:50) complex

 executed on             LinuxIFC date 2022.08.11  08:21:42

 INCAR:
 POTCAR:    PAW_PBE Be_sv 06Sep2000
 POTCAR:    PAW_PBE Ba_sv 06Sep2000
 POTCAR:    PAW_PBE H 15Jun2001
 POTCAR:    PAW_PBE Be_sv 06Sep2000
   VRHFIN =Be: s2p0

   TITEL  = PAW_PBE Be_sv 06Sep2000
   POMASS =    9.013; ZVAL   =    4.000    mass and valenz
   ENMAX  =  308.768; ENMIN  =  231.576 eV

 POTCAR:    PAW_PBE Ba_sv 06Sep2000
   VRHFIN =Ba: 5s5p6s

   TITEL  = PAW_PBE Ba_sv 06Sep2000
   POMASS =  137.327; ZVAL   =   10.000    mass and valenz
   ENMAX  =  187.181; ENMIN  =  140.386 eV

 POTCAR:    PAW_PBE H 15Jun2001
   VRHFIN =H: ultrasoft test

   TITEL  = PAW_PBE H 15Jun2001
   POMASS =    1.000; ZVAL   =    1.000    mass and valenz
   ENMAX  =  250.000; ENMIN  =  200.000 eV

 Optimization of the real space projectors (new method)

 maximal supplied QI-value         = 20.98
 optimisation between [QCUT,QGAM] = [ 12.38, 24.96] = [ 42.89,174.48] Ry
 Optimized for a Real-space Cutoff    1.39 Angstroem

   l    n(q)    QCUT    max X(q) W(low)/X(q) W(high)/X(q)  e(spline)
   0     10    12.376    59.662    0.15E-03    0.49E-04    0.16E-05
   0     10    12.376    72.827    0.15E-03    0.49E-04    0.16E-05
   0     10    12.376    15.192    0.16E-03    0.47E-04    0.17E-05
   1     10    12.376    35.807    0.55E-05    0.18E-04    0.18E-06
   1     10    12.376    16.477    0.47E-05    0.16E-04    0.17E-06
 Optimization of the real space projectors (new method)

[...]

   l    n(q)    QCUT    max X(q) W(low)/X(q) W(high)/X(q)  e(spline)
   0     12    12.478    13.244    0.30E-04    0.22E-04    0.29E-06
   0     12    12.478    14.240    0.46E-04    0.37E-04    0.41E-06
   1     11    12.478     4.828    0.23E-04    0.85E-05    0.32E-06
   1     11    12.478     3.934    0.89E-04    0.38E-05    0.96E-06
   2     11    12.478    87.714    0.11E-03    0.31E-03    0.12E-05
   2     11    12.478    59.874    0.10E-03    0.30E-03    0.11E-05
 Optimization of the real space projectors (new method)

 maximal supplied QI-value         = 34.20
 optimisation between [QCUT,QGAM] = [ 12.31, 24.97] = [ 42.46,174.58] Ry
 Optimized for a Real-space Cutoff    1.13 Angstroem

   l    n(q)    QCUT    max X(q) W(low)/X(q) W(high)/X(q)  e(spline)
   0      8    12.313    19.460    0.10E-03    0.25E-03    0.27E-06
   0      8    12.313    12.209    0.92E-04    0.23E-03    0.26E-06
   1      8    12.313     4.655    0.24E-03    0.28E-03    0.15E-06
  PAW_PBE Be_sv 06Sep2000               :
  PAW_PBE Ba_sv 06Sep2000               :
  PAW_PBE H 15Jun2001                   :

 POSCAR: 2:C2/c(15) PRIMITIVE
  positions in direct lattice
  velocities in cartesian coordinates
 exchange correlation table for  LEXCH =        8
   RHO(1)=    0.500       N(1)  =     2000
   RHO(2)=  100.500       N(2)  =     4000

 ion  position               nearest neighbor table
   1  0.295  0.705  0.750-  11 1.29  16 1.29  10 1.30  20 1.30   4 2.73   4 2.80   4 2.80   3 2.86
                             3 2.86   4 2.88
   2  0.705  0.295  0.250-   9 1.29  15 1.29  12 1.30  19 1.30   3 2.73   3 2.80   3 2.80   4 2.86
                             4 2.86   3 2.88
   3  0.217  0.783  0.250-  14 2.15   7 2.15   7 2.16  14 2.16  15 2.25   9 2.25  17 2.26   5 2.26
                            13 2.27   8 2.27  19 2.28  12 2.28  18 2.30   6 2.30   5 2.31  17 2.31
   4  0.783  0.217  0.750-   8 2.15  13 2.15  13 2.16   8 2.16  11 2.25  16 2.25   6 2.26  18 2.26
                             7 2.27  14 2.27  10 2.28  20 2.28   5 2.30  17 2.30  18 2.31   6 2.31
   5  0.235  0.256  0.049-   7 0.78   3 2.26   4 2.30   3 2.31
   6  0.765  0.744  0.951-   8 0.78   4 2.26   3 2.30   4 2.31
   7  0.080  0.263  0.123-   5 0.78   3 2.15   3 2.16   4 2.27
   8  0.920  0.737  0.877-   6 0.78   4 2.15   4 2.16   3 2.27
   9  0.463  0.321  0.386-   2 1.29   3 2.25   3 2.35   4 2.36
  10  0.008  0.674  0.611-   1 1.30   4 2.28   3 2.37   4 2.41
  11  0.537  0.679  0.614-   1 1.29   4 2.25   4 2.35   3 2.36
  12  0.992  0.326  0.389-   2 1.30   3 2.28   4 2.37   3 2.41
  13  0.263  0.080  0.623-  18 0.78   4 2.15   4 2.16   3 2.27
  14  0.737  0.920  0.377-  17 0.78   3 2.15   3 2.16   4 2.27
  15  0.679  0.537  0.114-   2 1.29   3 2.25   3 2.35   4 2.36
  16  0.321  0.463  0.886-   1 1.29   4 2.25   4 2.35   3 2.36
  17  0.744  0.765  0.451-  14 0.78   3 2.26   4 2.30   3 2.31
  18  0.256  0.235  0.549-  13 0.78   4 2.26   3 2.30   4 2.31
  19  0.674  0.008  0.111-   2 1.30   3 2.28   4 2.37   3 2.41
  20  0.326  0.992  0.889-   1 1.30   4 2.28   3 2.37   4 2.41

  Warning from LATTYP: Got some problem with cell dimensions!
  Tried to take original basis but could not verify dimensions!
  LATTYP: Found a base centered monoclinic cell.
 ALAT       =     5.5984571718
 B/A-ratio  =     1.0024783105
 C/A-ratio  =     2.0829538046
 COS(beta)  =    -0.6206966971

  Lattice vectors:

 A1 = (   2.7594816475,  -2.8061659436,   0.4700443738)
 A2 = (   2.7594816475,   2.8061659436,   0.4700443738)
 A3 = ( -11.0375559524,   0.0000000000,   3.7628342419)

Analysis of symmetry for initial positions (statically):
 Subroutine PRICEL returns:
 Original cell was already a primitive cell.

 Routine SETGRP: Setting up the symmetry group for a
 base centered monoclinic supercell.

 Subroutine GETGRP returns: Found  4 space group operations
 (whereof  2 operations were pure point group operations)
 out of a pool of  4 trial point group operations.

The static configuration has the point symmetry S_2 .
 The point group associated with its full space group is C_2h.

Analysis of symmetry for dynamics (positions and initial velocities):
 Subroutine PRICEL returns:
 Original cell was already a primitive cell.

 Routine SETGRP: Setting up the symmetry group for a
 base centered monoclinic supercell.

 Subroutine GETGRP returns: Found  4 space group operations
 (whereof  2 operations were pure point group operations)
 out of a pool of  4 trial point group operations.

The dynamic configuration has the point symmetry S_2 .
 The point group associated with its full space group is C_2h.

 Subroutine INISYM returns: Found  4 space group operations
 (whereof  2 operations are pure point group operations),
 and found     1 'primitive' translations

 KPOINTS: pymatgen with grid density = 3985 / numb

Automatic generation of k-mesh.
Space group operators:
 irot       det(A)        alpha          n_x          n_y          n_z        tau_x        tau_y        tau_z
    1     1.000000     0.000000     1.000000     0.000000     0.000000     0.000000     0.000000     0.000000
    2    -1.000000     0.000000     1.000000     0.000000     0.000000     0.000000     0.000000     0.000000
    3     1.000000   180.000000     0.000000     1.000000     0.000000    -1.000000    -1.000000    -0.500000
    4    -1.000000   180.000000     0.000000     1.000000     0.000000    -1.000000    -1.000000    -0.500000

 Subroutine IBZKPT returns following result:

 Found     42 irreducible k-points:

 Following reciprocal coordinates:
            Coordinates               Weight
  0.083333  0.083333  0.125000      2.000000
  0.250000  0.083333  0.125000      4.000000
  0.416667  0.083333  0.125000      4.000000
 -0.416667  0.083333  0.125000      4.000000
 -0.250000  0.083333  0.125000      4.000000
 -0.083333  0.083333  0.125000      4.000000
  0.250000  0.250000  0.125000      2.000000
  0.416667  0.250000  0.125000      4.000000
 -0.416667  0.250000  0.125000      4.000000
 -0.250000  0.250000  0.125000      4.000000
 -0.083333  0.250000  0.125000      4.000000
  0.416667  0.416667  0.125000      2.000000
 -0.416667  0.416667  0.125000      4.000000
 -0.250000  0.416667  0.125000      4.000000
 -0.083333  0.416667  0.125000      4.000000
 -0.416667 -0.416667  0.125000      2.000000
 -0.250000 -0.416667  0.125000      4.000000
 -0.083333 -0.416667  0.125000      4.000000
 -0.250000 -0.250000  0.125000      2.000000
 -0.083333 -0.250000  0.125000      4.000000
 -0.083333 -0.083333  0.125000      2.000000
  0.083333  0.083333  0.375000      2.000000
  0.250000  0.083333  0.375000      4.000000
  0.416667  0.083333  0.375000      4.000000
 -0.416667  0.083333  0.375000      4.000000
 -0.250000  0.083333  0.375000      4.000000
 -0.083333  0.083333  0.375000      4.000000
  0.250000  0.250000  0.375000      2.000000
  0.416667  0.250000  0.375000      4.000000
 -0.416667  0.250000  0.375000      4.000000
 -0.250000  0.250000  0.375000      4.000000
 -0.083333  0.250000  0.375000      4.000000
  0.416667  0.416667  0.375000      2.000000
 -0.416667  0.416667  0.375000      4.000000
 -0.250000  0.416667  0.375000      4.000000
 -0.083333  0.416667  0.375000      4.000000
 -0.416667 -0.416667  0.375000      2.000000
 -0.250000 -0.416667  0.375000      4.000000
 -0.083333 -0.416667  0.375000      4.000000
 -0.250000 -0.250000  0.375000      2.000000
 -0.083333 -0.250000  0.375000      4.000000
 -0.083333 -0.083333  0.375000      2.000000

 Following cartesian coordinates:
            Coordinates               Weight
  0.033972  0.000000 -0.022154      2.000000
  0.064172  0.029697 -0.022156      4.000000
  0.094371  0.059393 -0.022157      4.000000
 -0.056625 -0.089090 -0.022148      4.000000
 -0.026426 -0.059393 -0.022150      4.000000
  0.003773 -0.029697 -0.022152      4.000000
  0.094371  0.000000 -0.022157      2.000000
  0.124570  0.029697 -0.022159      4.000000
 -0.026426 -0.118786 -0.022150      4.000000
  0.003773 -0.089090 -0.022152      4.000000
  0.033972 -0.059393 -0.022154      4.000000
  0.154769  0.000000 -0.022161      2.000000
  0.003773 -0.148483 -0.022152      4.000000
  0.033972 -0.118786 -0.022154      4.000000
  0.064172 -0.089090 -0.022156      4.000000
 -0.147223  0.000000 -0.022142      2.000000
 -0.117024  0.029697 -0.022144      4.000000
 -0.086824  0.059393 -0.022146      4.000000
 -0.086824  0.000000 -0.022146      2.000000
 -0.056625  0.029697 -0.022148      4.000000
 -0.026426  0.000000 -0.022150      2.000000
  0.041519  0.000000 -0.066457      2.000000
  0.071718  0.029697 -0.066459      4.000000
  0.101917  0.059393 -0.066461      4.000000
 -0.049079 -0.089090 -0.066451      4.000000
 -0.018880 -0.059393 -0.066453      4.000000
  0.011320 -0.029697 -0.066455      4.000000
  0.101917  0.000000 -0.066461      2.000000
  0.132117  0.029697 -0.066463      4.000000
 -0.018880 -0.118786 -0.066453      4.000000
  0.011320 -0.089090 -0.066455      4.000000
  0.041519 -0.059393 -0.066457      4.000000
  0.162316  0.000000 -0.066465      2.000000
  0.011320 -0.148483 -0.066455      4.000000
  0.041519 -0.118786 -0.066457      4.000000
  0.071718 -0.089090 -0.066459      4.000000
 -0.139676  0.000000 -0.066445      2.000000
 -0.109477  0.029697 -0.066447      4.000000
 -0.079278  0.059393 -0.066449      4.000000
 -0.079278  0.000000 -0.066449      2.000000
 -0.049079  0.029697 -0.066451      4.000000
 -0.018880  0.000000 -0.066453      2.000000

 SYSTEM =  LOO
 POSCAR =  2:C2/c(15) PRIMITIVE

 Startparameter for this run:
   NWRITE =      2    write-flag & timer
   PREC   = accura    normal or accurate (medium, high low for compatibility)
[...]
 k-point 36 :  -0.0833 0.4167 0.3750  plane waves:    2912
 k-point 37 :  -0.4167-0.4167 0.3750  plane waves:    2926
 k-point 38 :  -0.2500-0.4167 0.3750  plane waves:    2919
 k-point 39 :  -0.0833-0.4167 0.3750  plane waves:    2905
 k-point 40 :  -0.2500-0.2500 0.3750  plane waves:    2923
 k-point 41 :  -0.0833-0.2500 0.3750  plane waves:    2914
 k-point 42 :  -0.0833-0.0833 0.3750  plane waves:    2896

 maximum and minimum number of plane-waves per node :       500      470

 maximum number of plane-waves:      2936
 maximum index in each direction:
   IXMAX=    8   IYMAX=    8   IZMAX=   11
   IXMIN=   -8   IYMIN=   -8   IZMIN=  -11

 real space projection operators:
  max/ min on nodes  :       1000.10        828.20

 parallel 3D FFT for wavefunctions:
    minimum data exchange during FFTs selected (reduces bandwidth)
 parallel 3D FFT for charge:
    minimum data exchange during FFTs selected (reduces bandwidth)

 Broyden mixing: mesh for mixing (old mesh)
   NGX = 15   NGY = 15   NGZ = 23
  (NGX  = 64   NGY  = 64   NGZ  = 96)
  gives a total of   5175 points

 initial charge density was supplied:
 charge density of overlapping atoms calculated
 number of electron      44.0000000 magnetization
 keeping initial charge density in first step

 Maximum index for non-local projection operator         1685
 Maximum index for augmentation-charges         1932 (set IRDMAX)

 First call to EWALD:  gamma=   0.399
 Maximum number of real-space cells 3x 3x 2
 Maximum number of reciprocal cells 3x 3x 3

--------------------------------------- Iteration      1(   1)  ---------------------------------------

 eigenvalue-minimisations  :  3904
 total energy-change (2. order) : 0.3359640E+03  (-0.2329124E+04)
 number of electron      44.0000000 magnetization
 augmentation part       44.0000000 magnetization

 Free energy of the ion-electron system (eV)
  alpha Z        PSCENC =       314.56504561
  Ewald energy   TEWEN  =     -2096.28676081
  -Hartree energ DENC   =      -176.90338391
  -exchange      EXHF   =         0.00000000
  -V(xc)+E(xc)   XCENC  =       140.10290714
  PAW double counting   =      1338.73365349    -1405.83620209
  entropy T*S    EENTRO =        -0.00470859
  eigenvalues    EBANDS =      -176.21417596
  atomic energy  EATOM  =      2397.80759001
  Solvation  Ediel_sol  =         0.00000000
  free energy    TOTEN  =       335.96396488 eV

  energy without entropy =      335.96867348  energy(sigma->0) =      335.96631918

[...]

 eigenvalue-minimisations  :  3540
 total energy-change (2. order) :-0.3586468E+03  (-0.3321169E+03)
 number of electron      44.0000000 magnetization
 augmentation part       44.0000000 magnetization

[...]

 Broyden mixing:
  rms(total) = 0.31043E+01    rms(broyden)= 0.31042E+01
  rms(prec ) = 0.35984E+01
  weight for this iteration     100.00

[...]

 eigenvalues of (default mixing * dielectric matrix)
  average eigenvalue GAMMA=   2.3290
  2.3290

[...]

WARNING in EDDRMM: call to ZHEGV failed, returncode =   8  4      3

[...]

 eigenvalue-minimisations  :  2379
 total energy-change (2. order) :-0.6076334E-08  (-0.1206237E-05)
 number of electron      44.0000032 magnetization
 augmentation part        0.2105587 magnetization

 Broyden mixing:
  rms(total) = 0.13776E-03    rms(broyden)= 0.13776E-03
  rms(prec ) = 0.15458E-03
  weight for this iteration     100.00

 eigenvalues of (default mixing * dielectric matrix)
  average eigenvalue GAMMA=   0.7804
  3.3818  3.3818  3.0973  2.4430  2.2402  1.8606  1.5957  1.1011  1.1011  1.0349
  0.9034  0.6990  0.6916  0.6916  0.5721  0.5721  0.3883  0.3883  0.4544  0.2770
  0.2770  0.2827  0.2827  0.3153  0.3153  0.1892  0.1650  0.1650  0.2582  0.2582
  0.1078  0.1078  0.2864  0.2864  0.0536  0.0772  0.2280  0.2280  0.2290  0.2290

[...]

--------------------------------------- Iteration      1(  46)  ---------------------------------------

 eigenvalue-minimisations  :  2331
 total energy-change (2. order) : 0.2902607E-06  (-0.9308070E-06)
 number of electron      44.0000032 magnetization
 augmentation part        0.2105587 magnetization

 Free energy of the ion-electron system (eV)
  alpha Z        PSCENC =       314.56504561
  Ewald energy   TEWEN  =     -2096.28676081
  -Hartree energ DENC   =      -187.15768918
  -exchange      EXHF   =         0.00000000
  -V(xc)+E(xc)   XCENC  =       143.02337550
  PAW double counting   =      7556.27677735    -7627.13737901
  entropy T*S    EENTRO =        -0.00000000
  eigenvalues    EBANDS =      -553.36403536
  atomic energy  EATOM  =      2397.80759001
  Solvation  Ediel_sol  =         0.00000000
  free energy    TOTEN  =       -52.27307590 eV

  energy without entropy =      -52.27307590  energy(sigma->0) =      -52.27307590

 average (electrostatic) potential at core
  the test charge radii are     0.6353  1.2192  0.5201
  (the norm of the test charge is              1.0000)
       1 -11.5677       2 -11.5677       3 -32.4898       4 -32.4898       5 -34.2056
       6 -34.2056       7 -34.3060       8 -34.3060       9 -31.7334      10 -31.8365
      11 -31.7334      12 -31.8365      13 -34.3060      14 -34.3060      15 -31.7334
      16 -31.7334      17 -34.2056      18 -34.2056      19 -31.8365      20 -31.8365

 E-fermi :   5.4533     XC(G=0): -11.9394     alpha+bet :-17.3826

 k-point     1 :       0.0833    0.0833    0.1250
  band No.  band energies     occupation
      1     -92.3205      2.00000
      2     -92.3205      2.00000
      3     -21.6263      2.00000
      4     -21.0575      2.00000
      5     -10.2213      2.00000
      6      -8.1998      2.00000
      7      -8.0285      2.00000
      8      -7.7646      2.00000
      9      -6.5892      2.00000
     10      -6.4842      2.00000
     11      -4.8234      2.00000
     12      -4.4506      2.00000
     13      -4.0793      2.00000
     14      -1.9608      2.00000
     15      -1.0009      2.00000
     16       0.3055      2.00000
     17       1.3252      2.00000
     18       1.6413      2.00000
     19       1.7303      2.00000
     20       2.8212      2.00000
     21       2.9661      2.00000
     22       3.3738      2.00000
     23       7.9715      0.00000
     24       8.0012      0.00000
     25       9.1253      0.00000
     26       9.7292      0.00000
     27      10.0549      0.00000
     28      10.7108      0.00000
     29      11.4531      0.00000
     30      11.4532      0.00000
     31      11.7365      0.00000
     32      12.0821      0.00000
     33      13.7381      0.00000
     34      13.8175      0.00000
     35      14.8573      0.00000
     36      16.4333      0.00000

[...]

 k-point    42 :      -0.0833   -0.0833    0.3750
  band No.  band energies     occupation
      1     -92.3205      2.00000
      2     -92.3205      2.00000
      3     -21.5292      2.00000
      4     -21.1675      2.00000
      5     -10.1333      2.00000
      6      -8.8204      2.00000
      7      -7.5659      2.00000
      8      -7.3626      2.00000
      9      -7.0151      2.00000
     10      -6.5754      2.00000
     11      -4.7100      2.00000
     12      -4.0230      2.00000
     13      -3.9012      2.00000
     14      -2.1315      2.00000
     15      -0.9272      2.00000
     16       0.1751      2.00000
     17       1.2086      2.00000
     18       1.4889      2.00000
     19       1.5715      2.00000
     20       2.2903      2.00000
     21       3.3235      2.00000
     22       3.6414      2.00000
     23       7.5161      0.00000
     24       7.5334      0.00000
     25       8.9889      0.00000
     26       9.0779      0.00000
     27       9.1665      0.00000
     28      10.8328      0.00000
     29      11.5334      0.00000
     30      12.6800      0.00000
     31      12.7623      0.00000
     32      12.9872      0.00000
     33      13.3938      0.00000
     34      14.8058      0.00000
     35      14.8665      0.00000
     36      16.2902      0.00000

 soft charge-density along one line, spin component           1
         0         1         2         3         4         5         6         7         8         9
 total charge-density along one line

------------------------ aborting loop because EDIFF is reached ----------------------------------------

 total charge

# of ion       s       p       d       tot
    1        2.461   1.011   0.000   3.472
    2        2.461   1.011   0.000   3.472
    3        2.047   5.698   0.892   8.637
    4        2.047   5.698   0.892   8.637
    5        0.619   0.058   0.000   0.678
    6        0.619   0.058   0.000   0.678
    7        0.659   0.053   0.000   0.712
    8        0.659   0.053   0.000   0.712
    9        0.653   0.019   0.000   0.672
   10        0.644   0.019   0.000   0.663
   11        0.653   0.019   0.000   0.672
   12        0.644   0.019   0.000   0.663
   13        0.663   0.053   0.000   0.715
   14        0.663   0.053   0.000   0.715
   15        0.653   0.018   0.000   0.672
   16        0.653   0.018   0.000   0.672
   17        0.620   0.059   0.000   0.679
   18        0.620   0.059   0.000   0.679
   19        0.644   0.019   0.000   0.664
   20        0.644   0.019   0.000   0.664
tot         19.328  14.012   1.785  35.125

 only isotrope contributions calculated
  for stress because ISIF=1 (only pressure is correct)

  FORCE on cell =-STRESS in cart. coord.  units (eV):
  Direction    XX          YY          ZZ          XY          YZ          ZX
  Alpha Z   314.56505   314.56505   314.56505
  Ewald    -689.00251  -686.53420  -720.75308    -0.00000    -0.00000    25.33320
  Hartree    66.28763    66.79492    54.07434     0.00000     0.00000     7.11863
  E(xc)    -163.13762  -163.06607  -162.97566    -0.00000     0.00000     0.31854
  Local     172.19763   170.72089   216.30979     0.00000     0.00000   -26.09997
  n-local  -145.34194  -145.34194  -145.34194     0.00000     0.00000     0.00000
  augment   -44.93983   -44.93983   -44.93983     0.00000     0.00000     0.00000
  Kinetic   543.81777   542.56286   543.48823    -0.29492    -1.95869    -5.26827
  Fock        0.00000     0.00000     0.00000     0.00000     0.00000     0.00000
  Total      54.44619    54.76169    54.42690     0.00000     0.00000     1.40214
  in kB     998.16216  1003.94620   997.80865     0.00000     0.00000    25.70543

 VOLUME and BASIS-vectors are now :
  energy-cutoff  :      600.00
  volume of cell :       87.39
      direct lattice vectors                 reciprocal lattice vectors
     2.759481647  2.806165944  0.470044374     0.181195477  0.178179056 -0.000011901
     2.759481647 -2.806165944  0.470044374     0.181195477 -0.178179056 -0.000011901
    -0.000370638  0.000000000 -5.643011737     0.030185978  0.000000000 -0.177212318

  length of vectors
     3.963615519  3.963615519  5.643011749     0.254125121  0.254125121  0.179764843

 FORCES acting on ions
    electron-ion (+dipol)            ewald-force                    non-local-force                 convergence-correction
   0.319E-12 -.506E+01 -.423E-12   0.711E-14 0.592E+01 0.355E-14   -.527E-17 -.862E+00 0.000E+00   -.104E-13 -.983E-05 -.127E-13
   0.783E-13 0.506E+01 -.504E-13   0.329E-13 -.592E+01 0.302E-13   -.385E-17 0.862E+00 0.694E-17   0.127E-13 0.983E-05 0.947E-14
   -.808E-11 -.123E+01 -.190E-11   -.338E-13 0.221E+01 -.142E-13   -.200E-17 -.982E+00 -.173E-17   -.687E-14 0.181E-04 0.873E-14
   -.850E-11 0.123E+01 0.756E-12   -.178E-13 -.221E+01 -.249E-13   -.140E-17 0.982E+00 0.867E-18   0.766E-14 -.181E-04 -.557E-14
   -.791E+01 -.989E+01 -.892E+01   0.103E+02 0.126E+02 0.116E+02   -.236E+01 -.269E+01 -.268E+01   0.110E-04 -.214E-05 -.127E-04
   0.791E+01 0.989E+01 0.892E+01   -.103E+02 -.126E+02 -.116E+02   0.236E+01 0.269E+01 0.268E+01   -.110E-04 0.214E-05 0.127E-04
   0.505E+01 0.401E+01 0.424E+01   -.723E+01 -.635E+01 -.690E+01   0.218E+01 0.234E+01 0.266E+01   -.203E-05 -.128E-04 -.159E-04
   -.505E+01 -.401E+01 -.424E+01   0.723E+01 0.635E+01 0.690E+01   -.218E+01 -.234E+01 -.266E+01   0.203E-05 0.128E-04 0.159E-04
   0.539E+01 0.957E+01 0.109E+02   -.609E+01 -.107E+02 -.121E+02   0.697E+00 0.112E+01 0.125E+01   0.261E-04 0.274E-04 0.329E-04
   0.110E+02 0.683E+01 -.953E+01   -.123E+02 -.768E+01 0.105E+02   0.128E+01 0.845E+00 -.993E+00   0.344E-04 0.281E-04 -.311E-04
   -.539E+01 -.957E+01 -.109E+02   0.609E+01 0.107E+02 0.121E+02   -.697E+00 -.112E+01 -.125E+01   -.261E-04 -.274E-04 -.329E-04
   -.110E+02 -.683E+01 0.953E+01   0.123E+02 0.768E+01 -.105E+02   -.128E+01 -.845E+00 0.993E+00   -.344E-04 -.281E-04 0.311E-04
   0.505E+01 -.401E+01 0.424E+01   -.723E+01 0.635E+01 -.690E+01   0.218E+01 -.234E+01 0.266E+01   -.203E-05 0.128E-04 -.159E-04
   -.505E+01 0.401E+01 -.424E+01   0.723E+01 -.635E+01 0.690E+01   -.218E+01 0.234E+01 -.266E+01   0.203E-05 -.128E-04 0.159E-04
   -.539E+01 0.957E+01 -.109E+02   0.609E+01 -.107E+02 0.121E+02   -.697E+00 0.112E+01 -.125E+01   -.261E-04 0.274E-04 -.329E-04
   0.539E+01 -.957E+01 0.109E+02   -.609E+01 0.107E+02 -.121E+02   0.697E+00 -.112E+01 0.125E+01   0.261E-04 -.274E-04 0.329E-04
   0.791E+01 -.989E+01 0.892E+01   -.103E+02 0.126E+02 -.116E+02   0.236E+01 -.269E+01 0.268E+01   -.110E-04 -.214E-05 0.127E-04
   -.791E+01 0.989E+01 -.892E+01   0.103E+02 -.126E+02 0.116E+02   -.236E+01 0.269E+01 -.268E+01   0.110E-04 0.214E-05 -.127E-04
   0.110E+02 -.683E+01 -.953E+01   -.123E+02 0.768E+01 0.105E+02   0.128E+01 -.845E+00 -.993E+00   0.344E-04 -.281E-04 -.311E-04
   -.110E+02 0.683E+01 0.953E+01   0.123E+02 -.768E+01 -.105E+02   -.128E+01 0.845E+00 0.993E+00   -.344E-04 0.281E-04 0.311E-04
   -.153E-10 0.135E-10 -.175E-11   0.355E-14 -.178E-14 -.178E-14   -.444E-15 -.888E-15 0.222E-15   0.246E-14 0.449E-14 0.152E-15

 POSITION                                       TOTAL-FORCE (eV/Angst)
      2.75920     -1.14833     -3.76221         0.000000     -0.000432     -0.000000
      2.75939      1.14833     -0.94071         0.000000      0.000432     -0.000000
      2.75939     -1.58611     -0.94071        -0.000000      0.001446     -0.000000
      2.75920      1.58611     -3.76221         0.000000     -0.001446     -0.000000
      1.35616     -0.05933     -0.04288         0.000036     -0.000050     -0.000664
      4.16243      0.05933     -4.66004        -0.000036      0.000050      0.000664
      0.94673     -0.51254     -0.53282        -0.000250      0.000385     -0.000715
      4.57186      0.51254     -4.17010         0.000250     -0.000385      0.000715
      2.16319      0.39633     -1.80970         0.000486      0.000429     -0.000565
      1.88330     -1.86842     -3.12601         0.000207     -0.000437     -0.000038
      3.35540     -0.39633     -2.89322        -0.000486     -0.000429      0.000565
      3.63529      1.86842     -1.57691        -0.000207      0.000437      0.000038
      0.94655      0.51254     -3.35433        -0.000250     -0.000385     -0.000715
      4.57204     -0.51254     -1.34859         0.000250      0.000385      0.000715
      3.35559      0.39633     -0.07172        -0.000486      0.000429      0.000565
      2.16301     -0.39633     -4.63121         0.000486     -0.000429     -0.000565
      4.16262     -0.05933     -1.83854        -0.000036     -0.000050      0.000664
      1.35598      0.05933     -2.86438         0.000036      0.000050     -0.000664
      1.88349      1.86842     -0.30451         0.000207      0.000437     -0.000038
      3.63511     -1.86842     -4.39841        -0.000207     -0.000437      0.000038
    total drift:                               -0.000000      0.000000     -0.000000

  FREE ENERGIE OF THE ION-ELECTRON SYSTEM (eV)
  free  energy   TOTEN  =       -52.27307590 eV

  energy  without entropy=      -52.27307590  energy(sigma->0) =      -52.27307590
  enthalpy is  TOTEN    =         2.27335860 eV   P V=       54.54643450

 writing wavefunctions

 total charge

# of ion       s       p       d       tot
    1        2.461   1.011   0.000   3.472
    2        2.461   1.011   0.000   3.472
    3        2.047   5.698   0.892   8.637
    4        2.047   5.698   0.892   8.637
    5        0.619   0.058   0.000   0.678
    6        0.619   0.058   0.000   0.678
    7        0.659   0.053   0.000   0.712
    8        0.659   0.053   0.000   0.712
    9        0.653   0.019   0.000   0.672
   10        0.644   0.019   0.000   0.663
   11        0.653   0.019   0.000   0.672
   12        0.644   0.019   0.000   0.663
   13        0.663   0.053   0.000   0.715
   14        0.663   0.053   0.000   0.715
   15        0.653   0.018   0.000   0.672
   16        0.653   0.018   0.000   0.672
   17        0.620   0.059   0.000   0.679
   18        0.620   0.059   0.000   0.679
   19        0.644   0.019   0.000   0.664
   20        0.644   0.019   0.000   0.664
tot         19.328  14.012   1.785  35.125